W=7;
H=8;

MAX_TIME=23;
MAX_TRACKS=22;

TARGET=(8,7);

TRAINS=[(6,4,DOWN),(4,2,LEFT),(4,6,RIGHT),(2,4,TOP)];
DECOYS=[];

INIT_POS=[
(1,6,CORNER_DL),
(2,1,CORNER_DR),
(2,4,STRAIGHT_TD),
(3,5,CORNER_DL),
(4,2,STRAIGHT_RL),
(4,4,ROCK),
(4,6,STRAIGHT_RL),
(5,5,CORNER_TL),
(6,4,STRAIGHT_TD),
(6,7,CORNER_TL),
(8,3,STRAIGHT_RL),
(8,4,STRAIGHT_RL),
(8,5,STRAIGHT_RL),
(8,6,STRAIGHT_RL),
(8,7,STRAIGHT_RL),
];
TUNNEL_PAIRS=[];

GATES=[
(8,3,4,false),
(8,4,3,false),
(8,5,2,false),
(8,6,1,false),
];
ACTIVATIONS=[
(1,6,2),
(2,1,1),
(3,5,4),
(5,5,2),
(6,7,3),
];

DSWITCHES=[];
STATIONS=[];

SEMAPHORE_SUPPLY=0;
